peakDumbCharging = 11100; 
Machine = anon_enum(16); 
machineSpeed = [3700,3700,3700,3700,3700,3700,3700,3700,3700,3700,3700,3700,3700,3700,3700,3700]; 
machineLoad = [3700,3700,3700,3700,3700,3700,3700,3700,3700,3700,3700,3700,3700,3700,3700,3700]; 
Car = anon_enum(21); 
demandCar = [4680,2880,880,27400,15520,4880,2760,10960,1720,9920,15960,4080,4840,8320,6920,18000,2400,6480,6120,59320,28000]; 
arrivalCar = [75,74,73,65,65,64,61,59,57,55,55,51,49,46,43,42,41,36,33,26,23]; 
departureCar = [78,80,76,75,71,67,63,64,59,63,67,54,53,50,49,60,44,39,38,52,60]; 
